NAME : C-n25-k9
CAPACITY : 742
NODE_COORD_SECTION
1   154   164
2   93   210
3   185   268
4   76   271
5   121   235
6   344   217
7   212   398
8   280   79
9   73   245
10   247   436
11   65   151
12   481   112
13   179   333
14   413   132
15   458   203
16   131   219
17   232   313
18   133   442
19   409   347
20   360   437
21   128   277
22   319   192
23   498   450
24   139   176
25   108   213
DEMAND_SECTION
1   0
2   26
3   11
4   42
5   77
6   23
7   91
8   94
9   72
10   94
11   12
12   91
13   63
14   8
15   53
16   88
17   96
18   12
19   19
20   39
21   17
22   29
23   89
24   44
25   92
DEPOT_SECTION
    1
    -1
EOF